c File: data_files/evolved_graphs/g0526.col
c
c Auto generated graph
c
p edge 100 2569
e 1 2
e 1 3
e 1 4
e 1 7
e 1 9
e 1 11
e 1 12
e 1 13
e 1 16
e 1 17
e 1 18
e 1 19
e 1 21
e 1 25
e 1 30
e 1 33
e 1 39
e 1 41
e 1 45
e 1 47
e 1 53
e 1 56
e 1 57
e 1 61
e 1 62
e 1 64
e 1 65
e 1 66
e 1 76
e 1 78
e 1 81
e 1 82
e 1 84
e 1 85
e 1 86
e 1 87
e 1 90
e 1 95
e 1 96
e 1 98
e 2 3
e 2 4
e 2 7
e 2 11
e 2 12
e 2 14
e 2 16
e 2 17
e 2 19
e 2 21
e 2 25
e 2 33
e 2 36
e 2 47
e 2 56
e 2 57
e 2 64
e 2 66
e 2 76
e 2 78
e 2 82
e 2 85
e 2 86
e 2 90
e 2 95
e 2 96
e 2 98
e 3 4
e 3 7
e 3 9
e 3 11
e 3 12
e 3 13
e 3 16
e 3 18
e 3 19
e 3 20
e 3 21
e 3 30
e 3 31
e 3 32
e 3 33
e 3 38
e 3 39
e 3 41
e 3 45
e 3 53
e 3 56
e 3 57
e 3 61
e 3 62
e 3 64
e 3 65
e 3 66
e 3 76
e 3 78
e 3 81
e 3 82
e 3 84
e 3 85
e 3 86
e 3 87
e 3 90
e 3 94
e 3 96
e 4 7
e 4 9
e 4 11
e 4 12
e 4 13
e 4 16
e 4 17
e 4 18
e 4 19
e 4 21
e 4 25
e 4 30
e 4 33
e 4 39
e 4 41
e 4 45
e 4 47
e 4 50
e 4 51
e 4 53
e 4 56
e 4 57
e 4 61
e 4 62
e 4 64
e 4 65
e 4 66
e 4 76
e 4 78
e 4 81
e 4 82
e 4 84
e 4 85
e 4 86
e 4 87
e 4 90
e 4 93
e 4 95
e 4 96
e 4 98
e 5 6
e 5 8
e 5 10
e 5 14
e 5 15
e 5 16
e 5 17
e 5 23
e 5 25
e 5 26
e 5 27
e 5 28
e 5 29
e 5 34
e 5 35
e 5 37
e 5 42
e 5 43
e 5 44
e 5 47
e 5 49
e 5 50
e 5 51
e 5 52
e 5 58
e 5 59
e 5 60
e 5 61
e 5 63
e 5 64
e 5 67
e 5 68
e 5 69
e 5 70
e 5 71
e 5 72
e 5 73
e 5 74
e 5 75
e 5 77
e 5 80
e 5 82
e 5 86
e 5 88
e 5 89
e 5 91
e 5 92
e 5 93
e 5 95
e 5 97
e 5 98
e 5 99
e 5 100
e 6 7
e 6 8
e 6 9
e 6 10
e 6 14
e 6 15
e 6 16
e 6 17
e 6 23
e 6 25
e 6 26
e 6 27
e 6 28
e 6 29
e 6 30
e 6 34
e 6 36
e 6 37
e 6 39
e 6 42
e 6 43
e 6 44
e 6 47
e 6 49
e 6 50
e 6 51
e 6 52
e 6 57
e 6 58
e 6 59
e 6 60
e 6 61
e 6 63
e 6 64
e 6 66
e 6 67
e 6 68
e 6 69
e 6 70
e 6 71
e 6 72
e 6 73
e 6 74
e 6 75
e 6 77
e 6 80
e 6 82
e 6 85
e 6 86
e 6 88
e 6 89
e 6 90
e 6 91
e 6 92
e 6 93
e 6 95
e 6 97
e 6 98
e 6 99
e 6 100
e 7 9
e 7 11
e 7 12
e 7 13
e 7 14
e 7 15
e 7 16
e 7 17
e 7 18
e 7 19
e 7 21
e 7 22
e 7 24
e 7 25
e 7 26
e 7 28
e 7 29
e 7 30
e 7 31
e 7 32
e 7 33
e 7 38
e 7 39
e 7 40
e 7 41
e 7 45
e 7 47
e 7 50
e 7 51
e 7 52
e 7 53
e 7 55
e 7 56
e 7 57
e 7 58
e 7 61
e 7 62
e 7 64
e 7 65
e 7 66
e 7 72
e 7 73
e 7 74
e 7 75
e 7 76
e 7 78
e 7 81
e 7 82
e 7 83
e 7 84
e 7 85
e 7 86
e 7 87
e 7 90
e 7 91
e 7 93
e 7 94
e 7 95
e 7 96
e 7 97
e 7 98
e 7 100
e 8 10
e 8 15
e 8 23
e 8 26
e 8 27
e 8 28
e 8 29
e 8 34
e 8 35
e 8 37
e 8 42
e 8 46
e 8 49
e 8 50
e 8 51
e 8 52
e 8 58
e 8 59
e 8 63
e 8 67
e 8 68
e 8 69
e 8 70
e 8 71
e 8 72
e 8 73
e 8 74
e 8 75
e 8 77
e 8 79
e 8 80
e 8 89
e 8 91
e 8 92
e 8 93
e 8 99
e 8 100
e 9 11
e 9 12
e 9 13
e 9 15
e 9 16
e 9 17
e 9 18
e 9 19
e 9 20
e 9 21
e 9 22
e 9 23
e 9 24
e 9 26
e 9 27
e 9 28
e 9 29
e 9 30
e 9 31
e 9 32
e 9 34
e 9 38
e 9 39
e 9 40
e 9 41
e 9 45
e 9 46
e 9 48
e 9 49
e 9 50
e 9 51
e 9 52
e 9 53
e 9 54
e 9 55
e 9 56
e 9 58
e 9 61
e 9 62
e 9 64
e 9 65
e 9 66
e 9 69
e 9 70
e 9 72
e 9 73
e 9 74
e 9 75
e 9 76
e 9 77
e 9 79
e 9 80
e 9 81
e 9 82
e 9 83
e 9 84
e 9 85
e 9 86
e 9 87
e 9 89
e 9 91
e 9 92
e 9 93
e 9 94
e 9 96
e 9 97
e 9 98
e 9 99
e 9 100
e 10 15
e 10 22
e 10 23
e 10 26
e 10 27
e 10 28
e 10 29
e 10 34
e 10 35
e 10 37
e 10 39
e 10 42
e 10 46
e 10 49
e 10 50
e 10 51
e 10 52
e 10 54
e 10 58
e 10 59
e 10 61
e 10 63
e 10 68
e 10 69
e 10 70
e 10 71
e 10 72
e 10 73
e 10 74
e 10 75
e 10 77
e 10 79
e 10 80
e 10 89
e 10 91
e 10 92
e 10 93
e 10 97
e 10 99
e 10 100
e 11 12
e 11 14
e 11 16
e 11 17
e 11 19
e 11 21
e 11 25
e 11 28
e 11 30
e 11 33
e 11 36
e 11 39
e 11 47
e 11 50
e 11 51
e 11 56
e 11 57
e 11 58
e 11 60
e 11 61
e 11 64
e 11 65
e 11 66
e 11 73
e 11 74
e 11 75
e 11 76
e 11 78
e 11 81
e 11 82
e 11 85
e 11 86
e 11 87
e 11 88
e 11 90
e 11 91
e 11 93
e 11 95
e 11 96
e 11 98
e 12 13
e 12 16
e 12 17
e 12 18
e 12 19
e 12 21
e 12 25
e 12 28
e 12 30
e 12 32
e 12 33
e 12 38
e 12 39
e 12 41
e 12 45
e 12 47
e 12 50
e 12 51
e 12 53
e 12 56
e 12 57
e 12 61
e 12 62
e 12 64
e 12 65
e 12 66
e 12 74
e 12 76
e 12 78
e 12 81
e 12 82
e 12 84
e 12 85
e 12 86
e 12 87
e 12 90
e 12 93
e 12 95
e 12 96
e 12 97
e 12 98
e 13 18
e 13 19
e 13 20
e 13 21
e 13 22
e 13 24
e 13 30
e 13 31
e 13 32
e 13 33
e 13 38
e 13 39
e 13 40
e 13 41
e 13 45
e 13 48
e 13 53
e 13 55
e 13 56
e 13 61
e 13 62
e 13 65
e 13 66
e 13 76
e 13 81
e 13 83
e 13 84
e 13 85
e 13 86
e 13 87
e 13 94
e 13 96
e 13 97
e 14 16
e 14 17
e 14 25
e 14 26
e 14 28
e 14 36
e 14 37
e 14 43
e 14 44
e 14 47
e 14 50
e 14 51
e 14 52
e 14 56
e 14 57
e 14 58
e 14 60
e 14 61
e 14 63
e 14 64
e 14 66
e 14 67
e 14 68
e 14 71
e 14 73
e 14 74
e 14 75
e 14 78
e 14 80
e 14 82
e 14 85
e 14 86
e 14 88
e 14 90
e 14 91
e 14 92
e 14 93
e 14 95
e 14 98
e 15 17
e 15 22
e 15 23
e 15 24
e 15 25
e 15 26
e 15 27
e 15 28
e 15 29
e 15 30
e 15 32
e 15 34
e 15 35
e 15 37
e 15 38
e 15 39
e 15 40
e 15 42
e 15 43
e 15 45
e 15 46
e 15 49
e 15 50
e 15 51
e 15 52
e 15 54
e 15 58
e 15 59
e 15 61
e 15 62
e 15 63
e 15 64
e 15 66
e 15 67
e 15 68
e 15 69
e 15 70
e 15 71
e 15 72
e 15 73
e 15 74
e 15 75
e 15 76
e 15 77
e 15 79
e 15 80
e 15 81
e 15 82
e 15 83
e 15 85
e 15 86
e 15 87
e 15 89
e 15 91
e 15 92
e 15 93
e 15 95
e 15 97
e 15 98
e 15 99
e 15 100
e 16 17
e 16 19
e 16 21
e 16 25
e 16 26
e 16 28
e 16 30
e 16 33
e 16 36
e 16 39
e 16 43
e 16 44
e 16 47
e 16 50
e 16 51
e 16 52
e 16 56
e 16 57
e 16 58
e 16 60
e 16 61
e 16 63
e 16 64
e 16 65
e 16 66
e 16 67
e 16 73
e 16 74
e 16 75
e 16 76
e 16 78
e 16 80
e 16 81
e 16 82
e 16 85
e 16 86
e 16 87
e 16 88
e 16 90
e 16 91
e 16 92
e 16 93
e 16 95
e 16 96
e 16 98
e 17 19
e 17 21
e 17 25
e 17 26
e 17 28
e 17 29
e 17 30
e 17 33
e 17 36
e 17 37
e 17 39
e 17 43
e 17 44
e 17 47
e 17 50
e 17 51
e 17 52
e 17 56
e 17 57
e 17 58
e 17 60
e 17 61
e 17 63
e 17 64
e 17 65
e 17 66
e 17 67
e 17 68
e 17 71
e 17 73
e 17 74
e 17 75
e 17 76
e 17 78
e 17 80
e 17 81
e 17 82
e 17 85
e 17 86
e 17 87
e 17 88
e 17 90
e 17 91
e 17 92
e 17 93
e 17 95
e 17 96
e 17 97
e 17 98
e 18 19
e 18 20
e 18 21
e 18 22
e 18 24
e 18 29
e 18 30
e 18 31
e 18 32
e 18 38
e 18 39
e 18 40
e 18 41
e 18 45
e 18 48
e 18 53
e 18 55
e 18 56
e 18 61
e 18 62
e 18 65
e 18 66
e 18 76
e 18 81
e 18 83
e 18 84
e 18 85
e 18 86
e 18 87
e 18 94
e 18 96
e 18 97
e 19 21
e 19 30
e 19 31
e 19 32
e 19 33
e 19 39
e 19 41
e 19 45
e 19 53
e 19 56
e 19 57
e 19 61
e 19 62
e 19 64
e 19 65
e 19 66
e 19 76
e 19 78
e 19 81
e 19 82
e 19 84
e 19 85
e 19 86
e 19 87
e 19 90
e 19 94
e 19 96
e 19 98
e 20 22
e 20 24
e 20 30
e 20 31
e 20 32
e 20 38
e 20 39
e 20 40
e 20 41
e 20 45
e 20 48
e 20 53
e 20 55
e 20 62
e 20 65
e 20 76
e 20 81
e 20 83
e 20 84
e 20 87
e 20 94
e 20 97
e 21 30
e 21 33
e 21 39
e 21 41
e 21 45
e 21 53
e 21 56
e 21 57
e 21 62
e 21 64
e 21 65
e 21 66
e 21 76
e 21 78
e 21 81
e 21 82
e 21 84
e 21 85
e 21 86
e 21 87
e 21 90
e 21 96
e 21 98
e 22 23
e 22 24
e 22 26
e 22 27
e 22 28
e 22 29
e 22 30
e 22 31
e 22 32
e 22 34
e 22 35
e 22 38
e 22 39
e 22 40
e 22 41
e 22 42
e 22 45
e 22 46
e 22 48
e 22 49
e 22 51
e 22 52
e 22 53
e 22 54
e 22 55
e 22 58
e 22 59
e 22 61
e 22 62
e 22 65
e 22 66
e 22 69
e 22 70
e 22 72
e 22 74
e 22 76
e 22 77
e 22 79
e 22 80
e 22 81
e 22 83
e 22 84
e 22 86
e 22 87
e 22 89
e 22 93
e 22 94
e 22 97
e 22 99
e 22 100
e 23 24
e 23 26
e 23 27
e 23 28
e 23 29
e 23 30
e 23 32
e 23 34
e 23 35
e 23 38
e 23 39
e 23 40
e 23 42
e 23 45
e 23 46
e 23 48
e 23 49
e 23 50
e 23 51
e 23 52
e 23 54
e 23 55
e 23 58
e 23 59
e 23 61
e 23 62
e 23 63
e 23 69
e 23 70
e 23 72
e 23 73
e 23 74
e 23 77
e 23 79
e 23 80
e 23 83
e 23 86
e 23 89
e 23 91
e 23 92
e 23 93
e 23 97
e 23 99
e 23 100
e 24 26
e 24 27
e 24 28
e 24 29
e 24 30
e 24 31
e 24 32
e 24 34
e 24 38
e 24 39
e 24 40
e 24 41
e 24 45
e 24 46
e 24 48
e 24 49
e 24 53
e 24 54
e 24 55
e 24 61
e 24 62
e 24 65
e 24 66
e 24 69
e 24 72
e 24 76
e 24 77
e 24 79
e 24 81
e 24 83
e 24 84
e 24 86
e 24 87
e 24 89
e 24 94
e 24 97
e 24 99
e 24 100
e 25 26
e 25 28
e 25 30
e 25 36
e 25 37
e 25 39
e 25 43
e 25 44
e 25 47
e 25 50
e 25 51
e 25 52
e 25 56
e 25 57
e 25 58
e 25 60
e 25 61
e 25 63
e 25 64
e 25 66
e 25 67
e 25 68
e 25 71
e 25 73
e 25 74
e 25 75
e 25 76
e 25 78
e 25 80
e 25 82
e 25 85
e 25 86
e 25 88
e 25 90
e 25 91
e 25 92
e 25 93
e 25 95
e 25 98
e 26 27
e 26 28
e 26 29
e 26 30
e 26 32
e 26 34
e 26 35
e 26 37
e 26 38
e 26 39
e 26 40
e 26 42
e 26 43
e 26 45
e 26 46
e 26 47
e 26 49
e 26 50
e 26 51
e 26 52
e 26 54
e 26 56
e 26 57
e 26 58
e 26 59
e 26 60
e 26 61
e 26 62
e 26 63
e 26 64
e 26 66
e 26 67
e 26 68
e 26 69
e 26 70
e 26 71
e 26 72
e 26 73
e 26 74
e 26 75
e 26 76
e 26 77
e 26 79
e 26 80
e 26 81
e 26 82
e 26 83
e 26 85
e 26 86
e 26 87
e 26 89
e 26 90
e 26 91
e 26 92
e 26 93
e 26 95
e 26 97
e 26 98
e 26 99
e 26 100
e 27 28
e 27 29
e 27 30
e 27 32
e 27 34
e 27 35
e 27 38
e 27 39
e 27 40
e 27 42
e 27 45
e 27 46
e 27 48
e 27 49
e 27 50
e 27 51
e 27 52
e 27 54
e 27 55
e 27 58
e 27 59
e 27 61
e 27 62
e 27 63
e 27 66
e 27 69
e 27 70
e 27 72
e 27 73
e 27 74
e 27 77
e 27 79
e 27 80
e 27 81
e 27 83
e 27 86
e 27 87
e 27 89
e 27 92
e 27 93
e 27 97
e 27 99
e 27 100
e 28 29
e 28 30
e 28 32
e 28 34
e 28 35
e 28 37
e 28 38
e 28 39
e 28 40
e 28 42
e 28 43
e 28 45
e 28 46
e 28 47
e 28 48
e 28 49
e 28 50
e 28 51
e 28 52
e 28 54
e 28 55
e 28 56
e 28 57
e 28 58
e 28 59
e 28 60
e 28 61
e 28 62
e 28 63
e 28 64
e 28 65
e 28 66
e 28 67
e 28 68
e 28 69
e 28 70
e 28 71
e 28 72
e 28 73
e 28 74
e 28 75
e 28 76
e 28 77
e 28 79
e 28 80
e 28 81
e 28 82
e 28 83
e 28 85
e 28 86
e 28 87
e 28 89
e 28 90
e 28 91
e 28 92
e 28 93
e 28 95
e 28 97
e 28 98
e 28 99
e 28 100
e 29 30
e 29 31
e 29 32
e 29 34
e 29 35
e 29 38
e 29 39
e 29 40
e 29 41
e 29 42
e 29 45
e 29 46
e 29 48
e 29 49
e 29 50
e 29 51
e 29 52
e 29 53
e 29 54
e 29 55
e 29 56
e 29 58
e 29 59
e 29 61
e 29 62
e 29 63
e 29 65
e 29 66
e 29 69
e 29 70
e 29 72
e 29 73
e 29 74
e 29 75
e 29 76
e 29 77
e 29 79
e 29 80
e 29 81
e 29 83
e 29 84
e 29 85
e 29 86
e 29 87
e 29 89
e 29 91
e 29 92
e 29 93
e 29 94
e 29 97
e 29 98
e 29 99
e 29 100
e 30 31
e 30 32
e 30 33
e 30 34
e 30 38
e 30 39
e 30 40
e 30 41
e 30 45
e 30 46
e 30 48
e 30 49
e 30 50
e 30 51
e 30 52
e 30 53
e 30 54
e 30 55
e 30 56
e 30 57
e 30 58
e 30 61
e 30 62
e 30 63
e 30 64
e 30 65
e 30 66
e 30 69
e 30 70
e 30 72
e 30 73
e 30 74
e 30 75
e 30 76
e 30 77
e 30 79
e 30 80
e 30 81
e 30 82
e 30 83
e 30 84
e 30 85
e 30 86
e 30 87
e 30 89
e 30 90
e 30 91
e 30 92
e 30 93
e 30 94
e 30 95
e 30 96
e 30 97
e 30 98
e 30 99
e 30 100
e 31 32
e 31 38
e 31 39
e 31 40
e 31 41
e 31 45
e 31 48
e 31 53
e 31 54
e 31 55
e 31 62
e 31 65
e 31 76
e 31 81
e 31 83
e 31 84
e 31 87
e 31 94
e 31 97
e 32 34
e 32 38
e 32 39
e 32 40
e 32 41
e 32 45
e 32 46
e 32 48
e 32 49
e 32 51
e 32 53
e 32 54
e 32 55
e 32 56
e 32 58
e 32 61
e 32 62
e 32 65
e 32 66
e 32 69
e 32 72
e 32 74
e 32 76
e 32 77
e 32 79
e 32 81
e 32 83
e 32 84
e 32 85
e 32 86
e 32 87
e 32 89
e 32 93
e 32 94
e 32 97
e 32 99
e 32 100
e 33 56
e 33 57
e 33 64
e 33 65
e 33 66
e 33 76
e 33 78
e 33 81
e 33 82
e 33 84
e 33 85
e 33 86
e 33 87
e 33 90
e 33 96
e 33 98
e 34 35
e 34 37
e 34 38
e 34 39
e 34 40
e 34 42
e 34 45
e 34 46
e 34 48
e 34 49
e 34 50
e 34 51
e 34 52
e 34 54
e 34 55
e 34 58
e 34 59
e 34 61
e 34 62
e 34 63
e 34 68
e 34 69
e 34 70
e 34 72
e 34 73
e 34 74
e 34 75
e 34 77
e 34 79
e 34 80
e 34 83
e 34 86
e 34 89
e 34 91
e 34 92
e 34 93
e 34 97
e 34 99
e 34 100
e 35 37
e 35 42
e 35 46
e 35 49
e 35 52
e 35 54
e 35 58
e 35 59
e 35 63
e 35 68
e 35 69
e 35 70
e 35 72
e 35 74
e 35 77
e 35 79
e 35 80
e 35 89
e 35 92
e 35 97
e 35 99
e 35 100
e 36 43
e 36 44
e 36 47
e 36 50
e 36 51
e 36 57
e 36 60
e 36 64
e 36 67
e 36 71
e 36 73
e 36 75
e 36 78
e 36 82
e 36 88
e 36 90
e 36 91
e 36 92
e 36 93
e 36 95
e 36 98
e 37 42
e 37 43
e 37 49
e 37 50
e 37 51
e 37 52
e 37 58
e 37 59
e 37 60
e 37 61
e 37 63
e 37 67
e 37 68
e 37 70
e 37 71
e 37 73
e 37 74
e 37 75
e 37 77
e 37 80
e 37 88
e 37 89
e 37 91
e 37 92
e 37 93
e 37 95
e 37 98
e 37 99
e 38 39
e 38 40
e 38 41
e 38 45
e 38 46
e 38 48
e 38 49
e 38 53
e 38 54
e 38 55
e 38 56
e 38 58
e 38 61
e 38 62
e 38 65
e 38 66
e 38 69
e 38 72
e 38 74
e 38 76
e 38 77
e 38 79
e 38 81
e 38 83
e 38 84
e 38 86
e 38 87
e 38 89
e 38 93
e 38 94
e 38 97
e 38 99
e 38 100
e 39 40
e 39 41
e 39 45
e 39 46
e 39 48
e 39 49
e 39 50
e 39 51
e 39 52
e 39 53
e 39 54
e 39 55
e 39 56
e 39 57
e 39 58
e 39 61
e 39 62
e 39 63
e 39 64
e 39 65
e 39 66
e 39 69
e 39 70
e 39 72
e 39 73
e 39 74
e 39 75
e 39 76
e 39 77
e 39 79
e 39 80
e 39 81
e 39 82
e 39 83
e 39 84
e 39 85
e 39 86
e 39 87
e 39 89
e 39 90
e 39 91
e 39 92
e 39 93
e 39 94
e 39 97
e 39 98
e 39 99
e 39 100
e 40 41
e 40 45
e 40 46
e 40 48
e 40 49
e 40 53
e 40 54
e 40 55
e 40 58
e 40 59
e 40 61
e 40 62
e 40 65
e 40 66
e 40 69
e 40 70
e 40 72
e 40 74
e 40 76
e 40 77
e 40 79
e 40 81
e 40 83
e 40 84
e 40 86
e 40 87
e 40 89
e 40 94
e 40 97
e 40 99
e 40 100
e 41 45
e 41 48
e 41 53
e 41 55
e 41 56
e 41 61
e 41 62
e 41 65
e 41 66
e 41 76
e 41 81
e 41 83
e 41 84
e 41 85
e 41 86
e 41 87
e 41 94
e 41 96
e 41 97
e 42 46
e 42 49
e 42 50
e 42 51
e 42 52
e 42 54
e 42 58
e 42 59
e 42 61
e 42 63
e 42 68
e 42 69
e 42 70
e 42 72
e 42 73
e 42 74
e 42 75
e 42 77
e 42 79
e 42 80
e 42 83
e 42 89
e 42 91
e 42 92
e 42 93
e 42 97
e 42 99
e 42 100
e 43 44
e 43 47
e 43 50
e 43 51
e 43 52
e 43 57
e 43 58
e 43 60
e 43 63
e 43 64
e 43 67
e 43 68
e 43 71
e 43 73
e 43 74
e 43 75
e 43 80
e 43 82
e 43 88
e 43 90
e 43 91
e 43 92
e 43 93
e 43 95
e 43 98
e 44 47
e 44 50
e 44 51
e 44 57
e 44 60
e 44 64
e 44 67
e 44 71
e 44 73
e 44 75
e 44 82
e 44 88
e 44 90
e 44 91
e 44 92
e 44 95
e 44 98
e 45 46
e 45 48
e 45 53
e 45 54
e 45 55
e 45 56
e 45 61
e 45 62
e 45 65
e 45 66
e 45 69
e 45 72
e 45 74
e 45 76
e 45 79
e 45 81
e 45 83
e 45 84
e 45 85
e 45 86
e 45 87
e 45 93
e 45 94
e 45 96
e 45 97
e 45 99
e 45 100
e 46 48
e 46 49
e 46 52
e 46 54
e 46 55
e 46 58
e 46 59
e 46 61
e 46 62
e 46 63
e 46 69
e 46 70
e 46 72
e 46 74
e 46 77
e 46 79
e 46 80
e 46 83
e 46 89
e 46 93
e 46 97
e 46 99
e 46 100
e 47 50
e 47 51
e 47 52
e 47 56
e 47 57
e 47 58
e 47 60
e 47 61
e 47 63
e 47 64
e 47 66
e 47 67
e 47 71
e 47 73
e 47 74
e 47 75
e 47 78
e 47 82
e 47 85
e 47 86
e 47 88
e 47 90
e 47 91
e 47 92
e 47 93
e 47 95
e 47 98
e 48 49
e 48 53
e 48 54
e 48 55
e 48 61
e 48 62
e 48 65
e 48 69
e 48 72
e 48 76
e 48 77
e 48 79
e 48 81
e 48 83
e 48 84
e 48 87
e 48 94
e 48 97
e 48 99
e 48 100
e 49 51
e 49 52
e 49 54
e 49 55
e 49 58
e 49 59
e 49 61
e 49 63
e 49 68
e 49 69
e 49 70
e 49 72
e 49 74
e 49 77
e 49 79
e 49 80
e 49 83
e 49 89
e 49 92
e 49 93
e 49 97
e 49 99
e 49 100
e 50 51
e 50 52
e 50 56
e 50 57
e 50 58
e 50 60
e 50 61
e 50 63
e 50 64
e 50 66
e 50 67
e 50 68
e 50 69
e 50 70
e 50 71
e 50 72
e 50 73
e 50 74
e 50 75
e 50 76
e 50 78
e 50 80
e 50 81
e 50 82
e 50 85
e 50 86
e 50 88
e 50 89
e 50 90
e 50 91
e 50 92
e 50 93
e 50 95
e 50 97
e 50 98
e 50 99
e 50 100
e 51 52
e 51 54
e 51 56
e 51 57
e 51 58
e 51 59
e 51 60
e 51 61
e 51 62
e 51 63
e 51 64
e 51 66
e 51 67
e 51 68
e 51 69
e 51 70
e 51 71
e 51 72
e 51 73
e 51 74
e 51 75
e 51 76
e 51 77
e 51 80
e 51 81
e 51 82
e 51 85
e 51 86
e 51 87
e 51 88
e 51 89
e 51 90
e 51 91
e 51 92
e 51 93
e 51 95
e 51 97
e 51 98
e 51 99
e 51 100
e 52 54
e 52 57
e 52 58
e 52 59
e 52 60
e 52 61
e 52 63
e 52 64
e 52 66
e 52 67
e 52 68
e 52 69
e 52 70
e 52 71
e 52 72
e 52 73
e 52 74
e 52 75
e 52 77
e 52 79
e 52 80
e 52 82
e 52 85
e 52 86
e 52 88
e 52 89
e 52 90
e 52 91
e 52 92
e 52 93
e 52 95
e 52 97
e 52 98
e 52 99
e 52 100
e 53 55
e 53 56
e 53 61
e 53 62
e 53 65
e 53 66
e 53 76
e 53 81
e 53 83
e 53 84
e 53 85
e 53 86
e 53 87
e 53 94
e 53 96
e 53 97
e 54 55
e 54 58
e 54 59
e 54 61
e 54 62
e 54 65
e 54 69
e 54 70
e 54 72
e 54 74
e 54 77
e 54 79
e 54 80
e 54 81
e 54 83
e 54 86
e 54 87
e 54 89
e 54 93
e 54 94
e 54 97
e 54 99
e 54 100
e 55 61
e 55 62
e 55 65
e 55 66
e 55 69
e 55 72
e 55 76
e 55 79
e 55 81
e 55 83
e 55 84
e 55 86
e 55 87
e 55 94
e 55 97
e 55 99
e 55 100
e 56 57
e 56 58
e 56 61
e 56 62
e 56 64
e 56 65
e 56 66
e 56 73
e 56 74
e 56 75
e 56 76
e 56 78
e 56 81
e 56 82
e 56 84
e 56 85
e 56 86
e 56 87
e 56 90
e 56 91
e 56 93
e 56 95
e 56 96
e 56 97
e 56 98
e 57 58
e 57 60
e 57 61
e 57 64
e 57 65
e 57 66
e 57 67
e 57 73
e 57 74
e 57 75
e 57 76
e 57 78
e 57 81
e 57 82
e 57 85
e 57 86
e 57 87
e 57 88
e 57 90
e 57 91
e 57 92
e 57 93
e 57 95
e 57 96
e 57 98
e 58 59
e 58 60
e 58 61
e 58 62
e 58 63
e 58 64
e 58 66
e 58 67
e 58 68
e 58 69
e 58 70
e 58 71
e 58 72
e 58 73
e 58 74
e 58 75
e 58 76
e 58 77
e 58 79
e 58 80
e 58 82
e 58 83
e 58 85
e 58 86
e 58 88
e 58 89
e 58 90
e 58 91
e 58 92
e 58 93
e 58 95
e 58 97
e 58 98
e 58 99
e 58 100
e 59 61
e 59 63
e 59 68
e 59 69
e 59 70
e 59 72
e 59 74
e 59 77
e 59 79
e 59 80
e 59 83
e 59 89
e 59 92
e 59 93
e 59 97
e 59 99
e 59 100
e 60 63
e 60 64
e 60 67
e 60 68
e 60 71
e 60 73
e 60 74
e 60 75
e 60 78
e 60 80
e 60 82
e 60 85
e 60 86
e 60 88
e 60 90
e 60 91
e 60 92
e 60 93
e 60 95
e 60 98
e 61 62
e 61 63
e 61 64
e 61 65
e 61 66
e 61 68
e 61 69
e 61 70
e 61 72
e 61 73
e 61 74
e 61 75
e 61 76
e 61 77
e 61 79
e 61 80
e 61 81
e 61 82
e 61 83
e 61 84
e 61 85
e 61 86
e 61 87
e 61 89
e 61 90
e 61 91
e 61 92
e 61 93
e 61 95
e 61 97
e 61 98
e 61 99
e 61 100
e 62 65
e 62 66
e 62 69
e 62 72
e 62 74
e 62 76
e 62 79
e 62 81
e 62 83
e 62 84
e 62 85
e 62 86
e 62 87
e 62 93
e 62 94
e 62 96
e 62 97
e 62 99
e 62 100
e 63 64
e 63 67
e 63 68
e 63 69
e 63 70
e 63 71
e 63 72
e 63 73
e 63 74
e 63 75
e 63 77
e 63 80
e 63 82
e 63 86
e 63 88
e 63 89
e 63 91
e 63 92
e 63 93
e 63 95
e 63 97
e 63 98
e 63 99
e 63 100
e 64 65
e 64 66
e 64 67
e 64 71
e 64 73
e 64 74
e 64 75
e 64 76
e 64 78
e 64 80
e 64 81
e 64 82
e 64 85
e 64 86
e 64 87
e 64 88
e 64 90
e 64 91
e 64 92
e 64 93
e 64 95
e 64 96
e 64 97
e 64 98
e 65 66
e 65 72
e 65 76
e 65 81
e 65 82
e 65 83
e 65 84
e 65 85
e 65 86
e 65 87
e 65 90
e 65 93
e 65 94
e 65 96
e 65 97
e 65 98
e 65 100
e 66 69
e 66 72
e 66 73
e 66 74
e 66 75
e 66 76
e 66 78
e 66 80
e 66 81
e 66 82
e 66 83
e 66 84
e 66 85
e 66 86
e 66 87
e 66 90
e 66 91
e 66 92
e 66 93
e 66 95
e 66 96
e 66 97
e 66 98
e 66 99
e 66 100
e 67 68
e 67 70
e 67 71
e 67 73
e 67 74
e 67 75
e 67 80
e 67 82
e 67 88
e 67 90
e 67 91
e 67 92
e 67 93
e 67 95
e 67 98
e 68 70
e 68 71
e 68 73
e 68 74
e 68 75
e 68 77
e 68 80
e 68 88
e 68 89
e 68 91
e 68 92
e 68 93
e 68 95
e 68 98
e 68 99
e 69 70
e 69 72
e 69 73
e 69 74
e 69 77
e 69 79
e 69 80
e 69 81
e 69 83
e 69 86
e 69 87
e 69 89
e 69 91
e 69 92
e 69 93
e 69 97
e 69 99
e 69 100
e 70 71
e 70 72
e 70 73
e 70 74
e 70 75
e 70 77
e 70 79
e 70 80
e 70 83
e 70 86
e 70 89
e 70 91
e 70 92
e 70 93
e 70 97
e 70 98
e 70 99
e 70 100
e 71 73
e 71 74
e 71 75
e 71 80
e 71 88
e 71 91
e 71 92
e 71 93
e 71 95
e 71 98
e 72 73
e 72 74
e 72 75
e 72 76
e 72 77
e 72 79
e 72 80
e 72 81
e 72 83
e 72 86
e 72 87
e 72 89
e 72 91
e 72 92
e 72 93
e 72 94
e 72 97
e 72 99
e 72 100
e 73 74
e 73 75
e 73 76
e 73 80
e 73 82
e 73 85
e 73 86
e 73 88
e 73 89
e 73 90
e 73 91
e 73 92
e 73 93
e 73 95
e 73 97
e 73 98
e 73 99
e 73 100
e 74 75
e 74 76
e 74 77
e 74 79
e 74 80
e 74 81
e 74 82
e 74 83
e 74 85
e 74 86
e 74 87
e 74 88
e 74 89
e 74 90
e 74 91
e 74 92
e 74 93
e 74 95
e 74 97
e 74 98
e 74 99
e 74 100
e 75 80
e 75 82
e 75 85
e 75 86
e 75 88
e 75 89
e 75 90
e 75 91
e 75 92
e 75 93
e 75 95
e 75 97
e 75 98
e 75 99
e 76 78
e 76 81
e 76 82
e 76 83
e 76 84
e 76 85
e 76 86
e 76 87
e 76 90
e 76 93
e 76 94
e 76 95
e 76 96
e 76 97
e 76 98
e 76 100
e 77 79
e 77 80
e 77 83
e 77 89
e 77 92
e 77 93
e 77 97
e 77 99
e 77 100
e 78 82
e 78 85
e 78 86
e 78 88
e 78 90
e 78 95
e 78 96
e 78 98
e 79 80
e 79 83
e 79 86
e 79 89
e 79 93
e 79 94
e 79 97
e 79 99
e 79 100
e 80 82
e 80 86
e 80 89
e 80 91
e 80 92
e 80 93
e 80 95
e 80 97
e 80 98
e 80 99
e 80 100
e 81 82
e 81 83
e 81 84
e 81 85
e 81 86
e 81 87
e 81 90
e 81 93
e 81 94
e 81 96
e 81 97
e 81 98
e 81 100
e 82 85
e 82 86
e 82 87
e 82 88
e 82 90
e 82 91
e 82 92
e 82 93
e 82 95
e 82 96
e 82 98
e 83 84
e 83 86
e 83 87
e 83 89
e 83 93
e 83 94
e 83 97
e 83 99
e 83 100
e 84 85
e 84 86
e 84 87
e 84 94
e 84 96
e 84 97
e 85 86
e 85 87
e 85 90
e 85 91
e 85 93
e 85 95
e 85 96
e 85 97
e 85 98
e 86 87
e 86 89
e 86 90
e 86 91
e 86 92
e 86 93
e 86 95
e 86 96
e 86 97
e 86 98
e 86 99
e 86 100
e 87 90
e 87 93
e 87 94
e 87 96
e 87 97
e 87 98
e 87 100
e 88 90
e 88 91
e 88 92
e 88 93
e 88 95
e 88 98
e 89 91
e 89 92
e 89 93
e 89 97
e 89 99
e 89 100
e 90 91
e 90 92
e 90 93
e 90 95
e 90 96
e 90 98
e 91 92
e 91 93
e 91 95
e 91 97
e 91 98
e 91 99
e 91 100
e 92 93
e 92 95
e 92 97
e 92 98
e 92 99
e 92 100
e 93 95
e 93 97
e 93 98
e 93 99
e 93 100
e 94 97
e 95 98
e 97 98
e 97 99
e 97 100
e 99 100
